benchmarks/VRPTW/TSPTW/solution/n20w100.005.txt.solution
1 12 9 14 3 2 19 11 10 15 13 6 20 18 16 21 7 4 17 5 8 
258
